Welcome to the CBC MILP Solver 
Version: Trunk
Build Date: Apr 16 2020 

Starting solution of the Linear programming relaxation problem using Primal Simplex

Using Python-MIP package version 1.8.1
Machines:  6 Jobs:  6
Order: 
Job  0 : machine 2 ( 1 ) machine 0 ( 3 ) machine 1 ( 6 ) machine 3 ( 7 ) machine 5 ( 3 ) machine 4 ( 6 ) 
Job  1 : machine 1 ( 8 ) machine 2 ( 5 ) machine 4 ( 10 ) machine 5 ( 10 ) machine 0 ( 10 ) machine 3 ( 4 ) 
Job  2 : machine 2 ( 5 ) machine 3 ( 4 ) machine 5 ( 8 ) machine 0 ( 9 ) machine 1 ( 1 ) machine 4 ( 7 ) 
Job  3 : machine 1 ( 5 ) machine 0 ( 5 ) machine 2 ( 5 ) machine 3 ( 3 ) machine 4 ( 8 ) machine 5 ( 9 ) 
Job  4 : machine 2 ( 9 ) machine 1 ( 3 ) machine 4 ( 5 ) machine 5 ( 4 ) machine 0 ( 3 ) machine 3 ( 1 ) 
Job  5 : machine 1 ( 3 ) machine 3 ( 3 ) machine 5 ( 9 ) machine 0 ( 10 ) machine 4 ( 4 ) machine 2 ( 1 ) 
K:  60
Job  0 , e: machine  0 ( 1 ) machine  1 ( 4 ) machine  2 ( 0 ) machine  3 ( 10 ) machine  4 ( 20 ) machine  5 ( 17 ) 
Job  1 , e: machine  0 ( 33 ) machine  1 ( 0 ) machine  2 ( 8 ) machine  3 ( 43 ) machine  4 ( 13 ) machine  5 ( 23 ) 
Job  2 , e: machine  0 ( 17 ) machine  1 ( 26 ) machine  2 ( 0 ) machine  3 ( 5 ) machine  4 ( 27 ) machine  5 ( 9 ) 
Job  3 , e: machine  0 ( 5 ) machine  1 ( 0 ) machine  2 ( 10 ) machine  3 ( 15 ) machine  4 ( 18 ) machine  5 ( 26 ) 
Job  4 , e: machine  0 ( 21 ) machine  1 ( 9 ) machine  2 ( 0 ) machine  3 ( 24 ) machine  4 ( 12 ) machine  5 ( 17 ) 
Job  5 , e: machine  0 ( 15 ) machine  1 ( 0 ) machine  2 ( 29 ) machine  3 ( 3 ) machine  4 ( 25 ) machine  5 ( 6 ) 
Job  0 , f: machine  0 ( 22 ) machine  1 ( 16 ) machine  2 ( 25 ) machine  3 ( 9 ) machine  4 ( 0 ) machine  5 ( 6 ) 
Job  1 , f: machine  0 ( 4 ) machine  1 ( 39 ) machine  2 ( 34 ) machine  3 ( 0 ) machine  4 ( 24 ) machine  5 ( 14 ) 
Job  2 , f: machine  0 ( 8 ) machine  1 ( 7 ) machine  2 ( 29 ) machine  3 ( 25 ) machine  4 ( 0 ) machine  5 ( 17 ) 
Job  3 , f: machine  0 ( 25 ) machine  1 ( 30 ) machine  2 ( 20 ) machine  3 ( 17 ) machine  4 ( 9 ) machine  5 ( 0 ) 
Job  4 , f: machine  0 ( 1 ) machine  1 ( 13 ) machine  2 ( 16 ) machine  3 ( 0 ) machine  4 ( 8 ) machine  5 ( 4 ) 
Job  5 , f: machine  0 ( 5 ) machine  1 ( 27 ) machine  2 ( 0 ) machine  3 ( 24 ) machine  4 ( 1 ) machine  5 ( 15 ) 
EST and LST:
Job: 0 Machine: 0 EST: 1 LST: 35
Job: 0 Machine: 1 EST: 4 LST: 38
Job: 0 Machine: 2 EST: 0 LST: 34
Job: 0 Machine: 3 EST: 10 LST: 44
Job: 0 Machine: 4 EST: 20 LST: 54
Job: 0 Machine: 5 EST: 17 LST: 51
Job: 1 Machine: 0 EST: 33 LST: 46
Job: 1 Machine: 1 EST: 0 LST: 13
Job: 1 Machine: 2 EST: 8 LST: 21
Job: 1 Machine: 3 EST: 43 LST: 56
Job: 1 Machine: 4 EST: 13 LST: 26
Job: 1 Machine: 5 EST: 23 LST: 36
Job: 2 Machine: 0 EST: 17 LST: 43
Job: 2 Machine: 1 EST: 26 LST: 52
Job: 2 Machine: 2 EST: 0 LST: 26
Job: 2 Machine: 3 EST: 5 LST: 31
Job: 2 Machine: 4 EST: 27 LST: 53
Job: 2 Machine: 5 EST: 9 LST: 35
Job: 3 Machine: 0 EST: 5 LST: 30
Job: 3 Machine: 1 EST: 0 LST: 25
Job: 3 Machine: 2 EST: 10 LST: 35
Job: 3 Machine: 3 EST: 15 LST: 40
Job: 3 Machine: 4 EST: 18 LST: 43
Job: 3 Machine: 5 EST: 26 LST: 51
Job: 4 Machine: 0 EST: 21 LST: 56
Job: 4 Machine: 1 EST: 9 LST: 44
Job: 4 Machine: 2 EST: 0 LST: 35
Job: 4 Machine: 3 EST: 24 LST: 59
Job: 4 Machine: 4 EST: 12 LST: 47
Job: 4 Machine: 5 EST: 17 LST: 52
Job: 5 Machine: 0 EST: 15 LST: 45
Job: 5 Machine: 1 EST: 0 LST: 30
Job: 5 Machine: 2 EST: 29 LST: 59
Job: 5 Machine: 3 EST: 3 LST: 33
Job: 5 Machine: 4 EST: 25 LST: 55
Job: 5 Machine: 5 EST: 6 LST: 36
Order:
Job: 0 Machine: 0 = 1 
Job: 0 Machine: 1 = 2 
Job: 0 Machine: 2 = 0 
Job: 0 Machine: 3 = 3 
Job: 0 Machine: 4 = 5 
Job: 0 Machine: 5 = 4 
Job: 1 Machine: 0 = 4 
Job: 1 Machine: 1 = 0 
Job: 1 Machine: 2 = 1 
Job: 1 Machine: 3 = 5 
Job: 1 Machine: 4 = 2 
Job: 1 Machine: 5 = 3 
Job: 2 Machine: 0 = 3 
Job: 2 Machine: 1 = 4 
Job: 2 Machine: 2 = 0 
Job: 2 Machine: 3 = 1 
Job: 2 Machine: 4 = 5 
Job: 2 Machine: 5 = 2 
Job: 3 Machine: 0 = 1 
Job: 3 Machine: 1 = 0 
Job: 3 Machine: 2 = 2 
Job: 3 Machine: 3 = 3 
Job: 3 Machine: 4 = 4 
Job: 3 Machine: 5 = 5 
Job: 4 Machine: 0 = 4 
Job: 4 Machine: 1 = 1 
Job: 4 Machine: 2 = 0 
Job: 4 Machine: 3 = 5 
Job: 4 Machine: 4 = 2 
Job: 4 Machine: 5 = 3 
Job: 5 Machine: 0 = 3 
Job: 5 Machine: 1 = 0 
Job: 5 Machine: 2 = 5 
Job: 5 Machine: 3 = 1 
Job: 5 Machine: 4 = 4 
Job: 5 Machine: 5 = 2 
Distances:
Job 0, Machine 2 -> Machine 0: distance 1
Job 0, Machine 2 -> Machine 1: distance 4
Job 0, Machine 2 -> Machine 3: distance 10
Job 0, Machine 2 -> Machine 5: distance 17
Job 0, Machine 2 -> Machine 4: distance 20
Job 0, Machine 0 -> Machine 1: distance 3
Job 0, Machine 0 -> Machine 3: distance 9
Job 0, Machine 0 -> Machine 5: distance 16
Job 0, Machine 0 -> Machine 4: distance 19
Job 0, Machine 1 -> Machine 3: distance 6
Job 0, Machine 1 -> Machine 5: distance 13
Job 0, Machine 1 -> Machine 4: distance 16
Job 0, Machine 3 -> Machine 5: distance 7
Job 0, Machine 3 -> Machine 4: distance 10
Job 0, Machine 5 -> Machine 4: distance 3
Job 1, Machine 1 -> Machine 2: distance 8
Job 1, Machine 1 -> Machine 4: distance 13
Job 1, Machine 1 -> Machine 5: distance 23
Job 1, Machine 1 -> Machine 0: distance 33
Job 1, Machine 1 -> Machine 3: distance 43
Job 1, Machine 2 -> Machine 4: distance 5
Job 1, Machine 2 -> Machine 5: distance 15
Job 1, Machine 2 -> Machine 0: distance 25
Job 1, Machine 2 -> Machine 3: distance 35
Job 1, Machine 4 -> Machine 5: distance 10
Job 1, Machine 4 -> Machine 0: distance 20
Job 1, Machine 4 -> Machine 3: distance 30
Job 1, Machine 5 -> Machine 0: distance 10
Job 1, Machine 5 -> Machine 3: distance 20
Job 1, Machine 0 -> Machine 3: distance 10
Job 2, Machine 2 -> Machine 3: distance 5
Job 2, Machine 2 -> Machine 5: distance 9
Job 2, Machine 2 -> Machine 0: distance 17
Job 2, Machine 2 -> Machine 1: distance 26
Job 2, Machine 2 -> Machine 4: distance 27
Job 2, Machine 3 -> Machine 5: distance 4
Job 2, Machine 3 -> Machine 0: distance 12
Job 2, Machine 3 -> Machine 1: distance 21
Job 2, Machine 3 -> Machine 4: distance 22
Job 2, Machine 5 -> Machine 0: distance 8
Job 2, Machine 5 -> Machine 1: distance 17
Job 2, Machine 5 -> Machine 4: distance 18
Job 2, Machine 0 -> Machine 1: distance 9
Job 2, Machine 0 -> Machine 4: distance 10
Job 2, Machine 1 -> Machine 4: distance 1
Job 3, Machine 1 -> Machine 0: distance 5
Job 3, Machine 1 -> Machine 2: distance 10
Job 3, Machine 1 -> Machine 3: distance 15
Job 3, Machine 1 -> Machine 4: distance 18
Job 3, Machine 1 -> Machine 5: distance 26
Job 3, Machine 0 -> Machine 2: distance 5
Job 3, Machine 0 -> Machine 3: distance 10
Job 3, Machine 0 -> Machine 4: distance 13
Job 3, Machine 0 -> Machine 5: distance 21
Job 3, Machine 2 -> Machine 3: distance 5
Job 3, Machine 2 -> Machine 4: distance 8
Job 3, Machine 2 -> Machine 5: distance 16
Job 3, Machine 3 -> Machine 4: distance 3
Job 3, Machine 3 -> Machine 5: distance 11
Job 3, Machine 4 -> Machine 5: distance 8
Job 4, Machine 2 -> Machine 1: distance 9
Job 4, Machine 2 -> Machine 4: distance 12
Job 4, Machine 2 -> Machine 5: distance 17
Job 4, Machine 2 -> Machine 0: distance 21
Job 4, Machine 2 -> Machine 3: distance 24
Job 4, Machine 1 -> Machine 4: distance 3
Job 4, Machine 1 -> Machine 5: distance 8
Job 4, Machine 1 -> Machine 0: distance 12
Job 4, Machine 1 -> Machine 3: distance 15
Job 4, Machine 4 -> Machine 5: distance 5
Job 4, Machine 4 -> Machine 0: distance 9
Job 4, Machine 4 -> Machine 3: distance 12
Job 4, Machine 5 -> Machine 0: distance 4
Job 4, Machine 5 -> Machine 3: distance 7
Job 4, Machine 0 -> Machine 3: distance 3
Job 5, Machine 1 -> Machine 3: distance 3
Job 5, Machine 1 -> Machine 5: distance 6
Job 5, Machine 1 -> Machine 0: distance 15
Job 5, Machine 1 -> Machine 4: distance 25
Job 5, Machine 1 -> Machine 2: distance 29
Job 5, Machine 3 -> Machine 5: distance 3
Job 5, Machine 3 -> Machine 0: distance 12
Job 5, Machine 3 -> Machine 4: distance 22
Job 5, Machine 3 -> Machine 2: distance 26
Job 5, Machine 5 -> Machine 0: distance 9
Job 5, Machine 5 -> Machine 4: distance 19
Job 5, Machine 5 -> Machine 2: distance 23
Job 5, Machine 0 -> Machine 4: distance 10
Job 5, Machine 0 -> Machine 2: distance 14
Job 5, Machine 4 -> Machine 2: distance 4
McCormic linearization
[(5, 1), (3, 2), (0, 0), (4, 1), (3, 0), (2, 1), (2, 0), (5, 0), (4, 2), (2, 5), (5, 2), (3, 5)]
obj:  0.8329113924050632
solutions:  1
+ 0.027848101265822777x(2,0) + 0.020253164556962036x(5,0) 
C:  46.999999999999986
x(0,0) = 16.32	 x(0,1) = 19.32	 x(0,2) = 15.32	 x(0,3) = 25.32	 x(0,4) = 35.32	 x(0,5) = 32.32	 
x(1,0) = 33.00	 x(1,1) = 0.00	 x(1,2) = 8.00	 x(1,3) = 43.00	 x(1,4) = 13.00	 x(1,5) = 23.00	 
x(2,0) = 24.00	 x(2,1) = 33.00	 x(2,2) = 0.00	 x(2,3) = 12.00	 x(2,4) = 40.00	 x(2,5) = 16.00	 
x(3,0) = 13.79	 x(3,1) = 8.79	 x(3,2) = 18.79	 x(3,3) = 25.63	 x(3,4) = 28.63	 x(3,5) = 36.63	 
x(4,0) = 32.32	 x(4,1) = 18.79	 x(4,2) = 9.79	 x(4,3) = 35.32	 x(4,4) = 23.32	 x(4,5) = 28.32	 
x(5,0) = 23.00	 x(5,1) = 8.00	 x(5,2) = 41.22	 x(5,3) = 11.00	 x(5,4) = 37.22	 x(5,5) = 14.00	 
y(0,1,0) = 1.00	 y(1,0,0) = 0.00	 
y(0,2,0) = 0.37	 y(2,0,0) = 0.63	 
y(0,3,0) = 0.07	 y(3,0,0) = 0.93	 
y(0,4,0) = 0.33	 y(4,0,0) = 0.67	 
y(0,5,0) = 0.31	 y(5,0,0) = 0.69	 
y(1,2,0) = 0.00	 y(2,1,0) = 1.00	 
y(1,3,0) = 0.00	 y(3,1,0) = 1.00	 
y(1,4,0) = 0.26	 y(4,1,0) = 0.74	 
y(1,5,0) = 0.29	 y(5,1,0) = 0.71	 
y(2,3,0) = 0.16	 y(3,2,0) = 0.84	 
y(2,4,0) = 0.27	 y(4,2,0) = 0.73	 
y(2,5,0) = 0.24	 y(5,2,0) = 0.76	 
y(3,4,0) = 0.40	 y(4,3,0) = 0.60	 
y(3,5,0) = 0.47	 y(5,3,0) = 0.53	 
y(4,5,0) = 0.02	 y(5,4,0) = 0.98	 
y(0,1,1) = 0.38	 y(1,0,1) = 0.62	 
y(0,2,1) = 0.30	 y(2,0,1) = 0.70	 
y(0,3,1) = 0.00	 y(3,0,1) = 1.00	 
y(0,4,1) = 0.06	 y(4,0,1) = 0.94	 
y(0,5,1) = 0.24	 y(5,0,1) = 0.76	 
y(1,2,1) = 1.00	 y(2,1,1) = 0.00	 
y(1,3,1) = 0.63	 y(3,1,1) = 0.37	 
y(1,4,1) = 0.66	 y(4,1,1) = 0.34	 
y(1,5,1) = 1.00	 y(5,1,1) = 0.00	 
y(2,3,1) = 0.00	 y(3,2,1) = 1.00	 
y(2,4,1) = 0.28	 y(4,2,1) = 0.72	 
y(2,5,1) = 0.51	 y(5,2,1) = 0.49	 
y(3,4,1) = 0.28	 y(4,3,1) = 0.72	 
y(3,5,1) = 0.07	 y(5,3,1) = 0.93	 
y(4,5,1) = 0.19	 y(5,4,1) = 0.81	 
y(0,1,2) = 0.11	 y(1,0,2) = 0.89	 
y(0,2,2) = 0.07	 y(2,0,2) = 0.93	 
y(0,3,2) = 0.21	 y(3,0,2) = 0.79	 
y(0,4,2) = 0.08	 y(4,0,2) = 0.92	 
y(0,5,2) = 0.45	 y(5,0,2) = 0.55	 
y(1,2,2) = 0.19	 y(2,1,2) = 0.81	 
y(1,3,2) = 0.74	 y(3,1,2) = 0.26	 
y(1,4,2) = 0.30	 y(4,1,2) = 0.70	 
y(1,5,2) = 1.00	 y(5,1,2) = 0.00	 
y(2,3,2) = 0.59	 y(3,2,2) = 0.41	 
y(2,4,2) = 0.43	 y(4,2,2) = 0.57	 
y(2,5,2) = 1.00	 y(5,2,2) = 0.00	 
y(3,4,2) = 0.00	 y(4,3,2) = 1.00	 
y(3,5,2) = 0.47	 y(5,3,2) = 0.53	 
y(4,5,2) = 0.54	 y(5,4,2) = 0.46	 
y(0,1,3) = 1.00	 y(1,0,3) = 0.00	 
y(0,2,3) = 0.27	 y(2,0,3) = 0.73	 
y(0,3,3) = 0.10	 y(3,0,3) = 0.90	 
y(0,4,3) = 0.22	 y(4,0,3) = 0.78	 
y(0,5,3) = 0.30	 y(5,0,3) = 0.70	 
y(1,2,3) = 0.00	 y(2,1,3) = 1.00	 
y(1,3,3) = 0.00	 y(3,1,3) = 1.00	 
y(1,4,3) = 0.60	 y(4,1,3) = 0.40	 
y(1,5,3) = 0.00	 y(5,1,3) = 1.00	 
y(2,3,3) = 0.44	 y(3,2,3) = 0.56	 
y(2,4,3) = 0.44	 y(4,2,3) = 0.56	 
y(2,5,3) = 0.06	 y(5,2,3) = 0.94	 
y(3,4,3) = 0.24	 y(4,3,3) = 0.76	 
y(3,5,3) = 0.34	 y(5,3,3) = 0.66	 
y(4,5,3) = 0.42	 y(5,4,3) = 0.58	 
y(0,1,4) = 0.40	 y(1,0,4) = 0.60	 
y(0,2,4) = 0.29	 y(2,0,4) = 0.71	 
y(0,3,4) = 0.04	 y(3,0,4) = 0.96	 
y(0,4,4) = 0.19	 y(4,0,4) = 0.81	 
y(0,5,4) = 0.15	 y(5,0,4) = 0.85	 
y(1,2,4) = 1.00	 y(2,1,4) = 0.00	 
y(1,3,4) = 1.00	 y(3,1,4) = 0.00	 
y(1,4,4) = 0.39	 y(4,1,4) = 0.61	 
y(1,5,4) = 1.00	 y(5,1,4) = 0.00	 
y(2,3,4) = 0.12	 y(3,2,4) = 0.88	 
y(2,4,4) = 0.32	 y(4,2,4) = 0.68	 
y(2,5,4) = 0.05	 y(5,2,4) = 0.95	 
y(3,4,4) = 0.01	 y(4,3,4) = 0.99	 
y(3,5,4) = 0.31	 y(5,3,4) = 0.69	 
y(4,5,4) = 0.38	 y(5,4,4) = 0.62	 
y(0,1,5) = 0.02	 y(1,0,5) = 0.98	 
y(0,2,5) = 0.24	 y(2,0,5) = 0.76	 
y(0,3,5) = 0.31	 y(3,0,5) = 0.69	 
y(0,4,5) = 0.00	 y(4,0,5) = 1.00	 
y(0,5,5) = 0.26	 y(5,0,5) = 0.74	 
y(1,2,5) = 0.05	 y(2,1,5) = 0.95	 
y(1,3,5) = 1.00	 y(3,1,5) = 0.00	 
y(1,4,5) = 0.28	 y(4,1,5) = 0.72	 
y(1,5,5) = 0.30	 y(5,1,5) = 0.70	 
y(2,3,5) = 0.58	 y(3,2,5) = 0.42	 
y(2,4,5) = 0.35	 y(4,2,5) = 0.65	 
y(2,5,5) = 0.19	 y(5,2,5) = 0.81	 
y(3,4,5) = 0.14	 y(4,3,5) = 0.86	 
y(3,5,5) = 0.38	 y(5,3,5) = 0.62	 
y(4,5,5) = 0.14	 y(5,4,5) = 0.86	 
obj:  1.269230769230769
erro
[(3, 2), (3, 3), (3, 0), (2, 1), (2, 3), (5, 0), (4, 3), (4, 2), (5, 1), (5, 2), (0, 2)]
cliques:  0 mip: 234
C:  46.99999999999999
x(0,0) = 14.00	 x(0,1) = 17.00	 x(0,2) = 13.00	 x(0,3) = 23.00	 x(0,4) = 33.00	 x(0,5) = 30.00	 
x(1,0) = 33.00	 x(1,1) = 0.00	 x(1,2) = 8.00	 x(1,3) = 43.00	 x(1,4) = 13.00	 x(1,5) = 23.00	 
x(2,0) = 20.00	 x(2,1) = 29.00	 x(2,2) = 3.00	 x(2,3) = 8.00	 x(2,4) = 37.79	 x(2,5) = 12.00	 
x(3,0) = 15.00	 x(3,1) = 10.00	 x(3,2) = 20.00	 x(3,3) = 26.79	 x(3,4) = 29.79	 x(3,5) = 37.79	 
x(4,0) = 32.81	 x(4,1) = 19.07	 x(4,2) = 10.07	 x(4,3) = 35.81	 x(4,4) = 23.16	 x(4,5) = 28.81	 
x(5,0) = 27.80	 x(5,1) = 10.69	 x(5,2) = 41.80	 x(5,3) = 13.69	 x(5,4) = 37.80	 x(5,5) = 18.80	 
y(0,1,0) = 1.00	 y(1,0,0) = 0.00	 
y(0,2,0) = 0.47	 y(2,0,0) = 0.53	 
y(0,3,0) = 0.18	 y(3,0,0) = 0.82	 
y(0,4,0) = 0.38	 y(4,0,0) = 0.62	 
y(0,5,0) = 0.64	 y(5,0,0) = 0.36	 
y(1,2,0) = 0.08	 y(2,1,0) = 0.92	 
y(1,3,0) = 0.00	 y(3,1,0) = 1.00	 
y(1,4,0) = 0.24	 y(4,1,0) = 0.76	 
y(1,5,0) = 0.24	 y(5,1,0) = 0.76	 
y(2,3,0) = 0.00	 y(3,2,0) = 1.00	 
y(2,4,0) = 0.38	 y(4,2,0) = 0.62	 
y(2,5,0) = 0.84	 y(5,2,0) = 0.16	 
y(3,4,0) = 0.39	 y(4,3,0) = 0.61	 
y(3,5,0) = 0.46	 y(5,3,0) = 0.54	 
y(4,5,0) = 0.15	 y(5,4,0) = 0.85	 
y(0,1,1) = 0.30	 y(1,0,1) = 0.70	 
y(0,2,1) = 0.41	 y(2,0,1) = 0.59	 
y(0,3,1) = 0.00	 y(3,0,1) = 1.00	 
y(0,4,1) = 0.12	 y(4,0,1) = 0.88	 
y(0,5,1) = 0.09	 y(5,0,1) = 0.91	 
y(1,2,1) = 1.00	 y(2,1,1) = 0.00	 
y(1,3,1) = 0.64	 y(3,1,1) = 0.36	 
y(1,4,1) = 0.69	 y(4,1,1) = 0.31	 
y(1,5,1) = 1.00	 y(5,1,1) = 0.00	 
y(2,3,1) = 0.00	 y(3,2,1) = 1.00	 
y(2,4,1) = 0.17	 y(4,2,1) = 0.83	 
y(2,5,1) = 0.31	 y(5,2,1) = 0.69	 
y(3,4,1) = 0.26	 y(4,3,1) = 0.74	 
y(3,5,1) = 0.11	 y(5,3,1) = 0.89	 
y(4,5,1) = 0.13	 y(5,4,1) = 0.87	 
y(0,1,2) = 0.00	 y(1,0,2) = 1.00	 
y(0,2,2) = 0.18	 y(2,0,2) = 0.82	 
y(0,3,2) = 0.30	 y(3,0,2) = 0.70	 
y(0,4,2) = 0.14	 y(4,0,2) = 0.86	 
y(0,5,2) = 0.50	 y(5,0,2) = 0.50	 
y(1,2,2) = 0.00	 y(2,1,2) = 1.00	 
y(1,3,2) = 0.74	 y(3,1,2) = 0.26	 
y(1,4,2) = 0.31	 y(4,1,2) = 0.69	 
y(1,5,2) = 1.00	 y(5,1,2) = 0.00	 
y(2,3,2) = 0.55	 y(3,2,2) = 0.45	 
y(2,4,2) = 0.37	 y(4,2,2) = 0.63	 
y(2,5,2) = 1.00	 y(5,2,2) = 0.00	 
y(3,4,2) = 0.26	 y(4,3,2) = 0.74	 
y(3,5,2) = 0.46	 y(5,3,2) = 0.54	 
y(4,5,2) = 0.55	 y(5,4,2) = 0.45	 
y(0,1,3) = 1.00	 y(1,0,3) = 0.00	 
y(0,2,3) = 0.31	 y(2,0,3) = 0.69	 
y(0,3,3) = 0.21	 y(3,0,3) = 0.79	 
y(0,4,3) = 0.28	 y(4,0,3) = 0.72	 
y(0,5,3) = 0.17	 y(5,0,3) = 0.83	 
y(1,2,3) = 0.00	 y(2,1,3) = 1.00	 
y(1,3,3) = 0.00	 y(3,1,3) = 1.00	 
y(1,4,3) = 0.60	 y(4,1,3) = 0.40	 
y(1,5,3) = 0.00	 y(5,1,3) = 1.00	 
y(2,3,3) = 0.57	 y(3,2,3) = 0.43	 
y(2,4,3) = 0.52	 y(4,2,3) = 0.48	 
y(2,5,3) = 0.28	 y(5,2,3) = 0.72	 
y(3,4,3) = 0.22	 y(4,3,3) = 0.78	 
y(3,5,3) = 0.30	 y(5,3,3) = 0.70	 
y(4,5,3) = 0.36	 y(5,4,3) = 0.64	 
y(0,1,4) = 0.00	 y(1,0,4) = 1.00	 
y(0,2,4) = 0.29	 y(2,0,4) = 0.71	 
y(0,3,4) = 0.15	 y(3,0,4) = 0.85	 
y(0,4,4) = 0.13	 y(4,0,4) = 0.87	 
y(0,5,4) = 0.23	 y(5,0,4) = 0.77	 
y(1,2,4) = 1.00	 y(2,1,4) = 0.00	 
y(1,3,4) = 1.00	 y(3,1,4) = 0.00	 
y(1,4,4) = 0.39	 y(4,1,4) = 0.61	 
y(1,5,4) = 1.00	 y(5,1,4) = 0.00	 
y(2,3,4) = 0.00	 y(3,2,4) = 1.00	 
y(2,4,4) = 0.27	 y(4,2,4) = 0.73	 
y(2,5,4) = 0.16	 y(5,2,4) = 0.84	 
y(3,4,4) = 0.06	 y(4,3,4) = 0.94	 
y(3,5,4) = 0.29	 y(5,3,4) = 0.71	 
y(4,5,4) = 0.40	 y(5,4,4) = 0.60	 
y(0,1,5) = 0.10	 y(1,0,5) = 0.90	 
y(0,2,5) = 0.29	 y(2,0,5) = 0.71	 
y(0,3,5) = 0.39	 y(3,0,5) = 0.61	 
y(0,4,5) = 0.38	 y(4,0,5) = 0.62	 
y(0,5,5) = 0.06	 y(5,0,5) = 0.94	 
y(1,2,5) = 0.16	 y(2,1,5) = 0.84	 
y(1,3,5) = 1.00	 y(3,1,5) = 0.00	 
y(1,4,5) = 0.30	 y(4,1,5) = 0.70	 
y(1,5,5) = 0.25	 y(5,1,5) = 0.75	 
y(2,3,5) = 0.68	 y(3,2,5) = 0.32	 
y(2,4,5) = 0.44	 y(4,2,5) = 0.56	 
y(2,5,5) = 0.79	 y(5,2,5) = 0.21	 
y(3,4,5) = 0.17	 y(4,3,5) = 0.83	 
y(3,5,5) = 0.28	 y(5,3,5) = 0.72	 
y(4,5,5) = 0.03	 y(5,4,5) = 0.97	 
obj:  1.1199059342533908
erro
[(3, 2), (0, 0), (3, 0), (2, 2), (2, 0), (2, 3), (4, 3), (5, 0), (4, 2), (5, 2), (0, 2)]
cliques:  0 mip: 248
C:  46.99999999999824
x(0,0) = 11.75	 x(0,1) = 15.55	 x(0,2) = 10.75	 x(0,3) = 21.55	 x(0,4) = 38.04	 x(0,5) = 28.55	 
x(1,0) = 33.00	 x(1,1) = -0.00	 x(1,2) = 8.00	 x(1,3) = 43.00	 x(1,4) = 13.00	 x(1,5) = 23.00	 
x(2,0) = 26.19	 x(2,1) = 35.19	 x(2,2) = 3.00	 x(2,3) = 8.00	 x(2,4) = 40.00	 x(2,5) = 15.00	 
x(3,0) = 13.11	 x(3,1) = 8.11	 x(3,2) = 19.01	 x(3,3) = 25.93	 x(3,4) = 30.00	 x(3,5) = 38.00	 
x(4,0) = 39.33	 x(4,1) = 21.29	 x(4,2) = 12.29	 x(4,3) = 42.33	 x(4,4) = 28.15	 x(4,5) = 35.33	 
x(5,0) = 25.79	 x(5,1) = 10.79	 x(5,2) = 39.79	 x(5,3) = 13.79	 x(5,4) = 35.79	 x(5,5) = 16.79	 
y(0,1,0) = 1.00	 y(1,0,0) = 0.00	 
y(0,2,0) = 0.52	 y(2,0,0) = 0.48	 
y(0,3,0) = 0.19	 y(3,0,0) = 0.81	 
y(0,4,0) = 0.53	 y(4,0,0) = 0.47	 
y(0,5,0) = 0.46	 y(5,0,0) = 0.54	 
y(1,2,0) = 0.18	 y(2,1,0) = 0.82	 
y(1,3,0) = 0.00	 y(3,1,0) = 1.00	 
y(1,4,0) = 0.36	 y(4,1,0) = 0.64	 
y(1,5,0) = 0.14	 y(5,1,0) = 0.86	 
y(2,3,0) = 0.00	 y(3,2,0) = 1.00	 
y(2,4,0) = 0.38	 y(4,2,0) = 0.62	 
y(2,5,0) = 0.69	 y(5,2,0) = 0.31	 
y(3,4,0) = 0.54	 y(4,3,0) = 0.46	 
y(3,5,0) = 0.45	 y(5,3,0) = 0.55	 
y(4,5,0) = 0.11	 y(5,4,0) = 0.89	 
y(0,1,1) = 0.25	 y(1,0,1) = 0.75	 
y(0,2,1) = 0.42	 y(2,0,1) = 0.58	 
y(0,3,1) = 0.00	 y(3,0,1) = 1.00	 
y(0,4,1) = 0.20	 y(4,0,1) = 0.80	 
y(0,5,1) = 0.05	 y(5,0,1) = 0.95	 
y(1,2,1) = 1.00	 y(2,1,1) = 0.00	 
y(1,3,1) = 0.44	 y(3,1,1) = 0.56	 
y(1,4,1) = 0.52	 y(4,1,1) = 0.48	 
y(1,5,1) = 1.00	 y(5,1,1) = 0.00	 
y(2,3,1) = 0.00	 y(3,2,1) = 1.00	 
y(2,4,1) = 0.27	 y(4,2,1) = 0.73	 
y(2,5,1) = 0.13	 y(5,2,1) = 0.87	 
y(3,4,1) = 0.34	 y(4,3,1) = 0.66	 
y(3,5,1) = 0.17	 y(5,3,1) = 0.83	 
y(4,5,1) = 0.18	 y(5,4,1) = 0.82	 
y(0,1,2) = 0.43	 y(1,0,2) = 0.57	 
y(0,2,2) = 0.22	 y(2,0,2) = 0.78	 
y(0,3,2) = 0.33	 y(3,0,2) = 0.67	 
y(0,4,2) = 0.24	 y(4,0,2) = 0.76	 
y(0,5,2) = 0.50	 y(5,0,2) = 0.50	 
y(1,2,2) = -0.00	 y(2,1,2) = 1.00	 
y(1,3,2) = 0.73	 y(3,1,2) = 0.27	 
y(1,4,2) = 0.37	 y(4,1,2) = 0.63	 
y(1,5,2) = 1.00	 y(5,1,2) = 0.00	 
y(2,3,2) = 0.63	 y(3,2,2) = 0.37	 
y(2,4,2) = 0.42	 y(4,2,2) = 0.58	 
y(2,5,2) = 1.00	 y(5,2,2) = 0.00	 
y(3,4,2) = 0.32	 y(4,3,2) = 0.68	 
y(3,5,2) = 0.45	 y(5,3,2) = 0.55	 
y(4,5,2) = 0.48	 y(5,4,2) = 0.52	 
y(0,1,3) = 1.00	 y(1,0,3) = 0.00	 
y(0,2,3) = 0.27	 y(2,0,3) = 0.73	 
y(0,3,3) = 0.22	 y(3,0,3) = 0.78	 
y(0,4,3) = 0.44	 y(4,0,3) = 0.56	 
y(0,5,3) = 0.13	 y(5,0,3) = 0.87	 
y(1,2,3) = 0.00	 y(2,1,3) = 1.00	 
y(1,3,3) = 0.00	 y(3,1,3) = 1.00	 
y(1,4,3) = 0.79	 y(4,1,3) = 0.21	 
y(1,5,3) = 0.00	 y(5,1,3) = 1.00	 
y(2,3,3) = 0.55	 y(3,2,3) = 0.45	 
y(2,4,3) = 0.64	 y(4,2,3) = 0.36	 
y(2,5,3) = 0.57	 y(5,2,3) = 0.43	 
y(3,4,3) = 0.39	 y(4,3,3) = 0.61	 
y(3,5,3) = 0.27	 y(5,3,3) = 0.73	 
y(4,5,3) = 0.48	 y(5,4,3) = 0.52	 
y(0,1,4) = 0.00	 y(1,0,4) = 1.00	 
y(0,2,4) = 0.22	 y(2,0,4) = 0.78	 
y(0,3,4) = 0.00	 y(3,0,4) = 1.00	 
y(0,4,4) = 0.13	 y(4,0,4) = 0.87	 
y(0,5,4) = 0.04	 y(5,0,4) = 0.96	 
y(1,2,4) = 1.00	 y(2,1,4) = 0.00	 
y(1,3,4) = 1.00	 y(3,1,4) = -0.00	 
y(1,4,4) = 0.52	 y(4,1,4) = 0.48	 
y(1,5,4) = 1.00	 y(5,1,4) = 0.00	 
y(2,3,4) = 0.07	 y(3,2,4) = 0.93	 
y(2,4,4) = 0.19	 y(4,2,4) = 0.81	 
y(2,5,4) = 0.05	 y(5,2,4) = 0.95	 
y(3,4,4) = 0.09	 y(4,3,4) = 0.91	 
y(3,5,4) = 0.24	 y(5,3,4) = 0.76	 
y(4,5,4) = 0.25	 y(5,4,4) = 0.75	 
y(0,1,5) = 0.15	 y(1,0,5) = 0.85	 
y(0,2,5) = 0.16	 y(2,0,5) = 0.84	 
y(0,3,5) = 0.45	 y(3,0,5) = 0.55	 
y(0,4,5) = 0.51	 y(4,0,5) = 0.49	 
y(0,5,5) = 0.08	 y(5,0,5) = 0.92	 
y(1,2,5) = 0.00	 y(2,1,5) = 1.00	 
y(1,3,5) = 1.00	 y(3,1,5) = -0.00	 
y(1,4,5) = 0.49	 y(4,1,5) = 0.51	 
y(1,5,5) = 0.15	 y(5,1,5) = 0.85	 
y(2,3,5) = 0.66	 y(3,2,5) = 0.34	 
y(2,4,5) = 0.52	 y(4,2,5) = 0.48	 
y(2,5,5) = 0.60	 y(5,2,5) = 0.40	 
y(3,4,5) = 0.04	 y(4,3,5) = 0.96	 
y(3,5,5) = 0.34	 y(5,3,5) = 0.66	 
y(4,5,5) = 0.26	 y(5,4,5) = 0.74	 
obj:  0.9999999999998639
erro
[(4, 1), (4, 5), (4, 4), (1, 4), (1, 5), (1, 1), (0, 5), (4, 3), (2, 5), (5, 2), (0, 2), (5, 3)]
cliques:  0 mip: 299
C:  46.9999999999992
x(0,0) = 15.61	 x(0,1) = 20.97	 x(0,2) = 14.61	 x(0,3) = 26.97	 x(0,4) = 38.00	 x(0,5) = 33.97	 
x(1,0) = 33.00	 x(1,1) = 0.00	 x(1,2) = 8.00	 x(1,3) = 43.00	 x(1,4) = 13.00	 x(1,5) = 23.00	 
x(2,0) = 23.00	 x(2,1) = 32.00	 x(2,2) = 3.00	 x(2,3) = 10.50	 x(2,4) = 38.38	 x(2,5) = 15.00	 
x(3,0) = 10.74	 x(3,1) = 5.74	 x(3,2) = 17.53	 x(3,3) = 23.97	 x(3,4) = 30.00	 x(3,5) = 38.00	 
x(4,0) = 36.90	 x(4,1) = 17.97	 x(4,2) = 8.97	 x(4,3) = 39.90	 x(4,4) = 25.40	 x(4,5) = 32.90	 
x(5,0) = 28.27	 x(5,1) = 13.27	 x(5,2) = 42.27	 x(5,3) = 16.27	 x(5,4) = 38.27	 x(5,5) = 19.27	 
y(0,1,0) = 1.00	 y(1,0,0) = 0.00	 
y(0,2,0) = 0.44	 y(2,0,0) = 0.56	 
y(0,3,0) = 0.00	 y(3,0,0) = 1.00	 
y(0,4,0) = 0.42	 y(4,0,0) = 0.58	 
y(0,5,0) = 0.46	 y(5,0,0) = 0.54	 
y(1,2,0) = 0.18	 y(2,1,0) = 0.82	 
y(1,3,0) = 0.00	 y(3,1,0) = 1.00	 
y(1,4,0) = 0.27	 y(4,1,0) = 0.73	 
y(1,5,0) = 0.26	 y(5,1,0) = 0.74	 
y(2,3,0) = 0.00	 y(3,2,0) = 1.00	 
y(2,4,0) = 0.40	 y(4,2,0) = 0.60	 
y(2,5,0) = 0.87	 y(5,2,0) = 0.13	 
y(3,4,0) = 0.54	 y(4,3,0) = 0.46	 
y(3,5,0) = 0.64	 y(5,3,0) = 0.36	 
y(4,5,0) = 0.04	 y(5,4,0) = 0.96	 
y(0,1,1) = 0.39	 y(1,0,1) = 0.61	 
y(0,2,1) = 0.25	 y(2,0,1) = 0.75	 
y(0,3,1) = 0.00	 y(3,0,1) = 1.00	 
y(0,4,1) = 0.00	 y(4,0,1) = 1.00	 
y(0,5,1) = 0.13	 y(5,0,1) = 0.87	 
y(1,2,1) = 1.00	 y(2,1,1) = 0.00	 
y(1,3,1) = 0.36	 y(3,1,1) = 0.64	 
y(1,4,1) = 0.45	 y(4,1,1) = 0.55	 
y(1,5,1) = 1.00	 y(5,1,1) = 0.00	 
y(2,3,1) = 0.00	 y(3,2,1) = 1.00	 
y(2,4,1) = 0.28	 y(4,2,1) = 0.72	 
y(2,5,1) = 0.29	 y(5,2,1) = 0.71	 
y(3,4,1) = 0.32	 y(4,3,1) = 0.68	 
y(3,5,1) = 0.32	 y(5,3,1) = 0.68	 
y(4,5,1) = 0.04	 y(5,4,1) = 0.96	 
y(0,1,2) = 0.18	 y(1,0,2) = 0.82	 
y(0,2,2) = 0.15	 y(2,0,2) = 0.85	 
y(0,3,2) = 0.20	 y(3,0,2) = 0.80	 
y(0,4,2) = 0.08	 y(4,0,2) = 0.92	 
y(0,5,2) = 0.48	 y(5,0,2) = 0.52	 
y(1,2,2) = 0.00	 y(2,1,2) = 1.00	 
y(1,3,2) = 0.79	 y(3,1,2) = 0.21	 
y(1,4,2) = 0.28	 y(4,1,2) = 0.72	 
y(1,5,2) = 1.00	 y(5,1,2) = 0.00	 
y(2,3,2) = 0.67	 y(3,2,2) = 0.33	 
y(2,4,2) = 0.34	 y(4,2,2) = 0.66	 
y(2,5,2) = 1.00	 y(5,2,2) = 0.00	 
y(3,4,2) = 0.27	 y(4,3,2) = 0.73	 
y(3,5,2) = 0.55	 y(5,3,2) = 0.45	 
y(4,5,2) = 0.57	 y(5,4,2) = 0.43	 
y(0,1,3) = 1.00	 y(1,0,3) = 0.00	 
y(0,2,3) = 0.36	 y(2,0,3) = 0.64	 
y(0,3,3) = 0.00	 y(3,0,3) = 1.00	 
y(0,4,3) = 0.28	 y(4,0,3) = 0.72	 
y(0,5,3) = 0.20	 y(5,0,3) = 0.80	 
y(1,2,3) = 0.00	 y(2,1,3) = 1.00	 
y(1,3,3) = 0.00	 y(3,1,3) = 1.00	 
y(1,4,3) = 0.68	 y(4,1,3) = 0.32	 
y(1,5,3) = 0.00	 y(5,1,3) = 1.00	 
y(2,3,3) = 0.49	 y(3,2,3) = 0.51	 
y(2,4,3) = 0.55	 y(4,2,3) = 0.45	 
y(2,5,3) = 0.65	 y(5,2,3) = 0.35	 
y(3,4,3) = 0.38	 y(4,3,3) = 0.62	 
y(3,5,3) = 0.14	 y(5,3,3) = 0.86	 
y(4,5,3) = 0.57	 y(5,4,3) = 0.43	 
y(0,1,4) = 0.00	 y(1,0,4) = 1.00	 
y(0,2,4) = 0.28	 y(2,0,4) = 0.72	 
y(0,3,4) = 0.00	 y(3,0,4) = 1.00	 
y(0,4,4) = 0.21	 y(4,0,4) = 0.79	 
y(0,5,4) = 0.11	 y(5,0,4) = 0.89	 
y(1,2,4) = 1.00	 y(2,1,4) = 0.00	 
y(1,3,4) = 1.00	 y(3,1,4) = 0.00	 
y(1,4,4) = 0.45	 y(4,1,4) = 0.55	 
y(1,5,4) = 1.00	 y(5,1,4) = 0.00	 
y(2,3,4) = 0.00	 y(3,2,4) = 1.00	 
y(2,4,4) = 0.22	 y(4,2,4) = 0.78	 
y(2,5,4) = 0.15	 y(5,2,4) = 0.85	 
y(3,4,4) = 0.01	 y(4,3,4) = 0.99	 
y(3,5,4) = 0.30	 y(5,3,4) = 0.70	 
y(4,5,4) = 0.36	 y(5,4,4) = 0.64	 
y(0,1,5) = 0.05	 y(1,0,5) = 0.95	 
y(0,2,5) = 0.32	 y(2,0,5) = 0.68	 
y(0,3,5) = 0.50	 y(3,0,5) = 0.50	 
y(0,4,5) = 0.36	 y(4,0,5) = 0.64	 
y(0,5,5) = 0.16	 y(5,0,5) = 0.84	 
y(1,2,5) = 0.00	 y(2,1,5) = 1.00	 
y(1,3,5) = 1.00	 y(3,1,5) = -0.00	 
y(1,4,5) = 0.42	 y(4,1,5) = 0.58	 
y(1,5,5) = 0.28	 y(5,1,5) = 0.72	 
y(2,3,5) = 0.75	 y(3,2,5) = 0.25	 
y(2,4,5) = 0.47	 y(4,2,5) = 0.53	 
y(2,5,5) = 0.82	 y(5,2,5) = 0.18	 
y(3,4,5) = 0.04	 y(4,3,5) = 0.96	 
y(3,5,5) = 0.27	 y(5,3,5) = 0.73	 
y(4,5,5) = 0.13	 y(5,4,5) = 0.87	 
obj:  1.4577542195101856
erro
[(3, 2), (0, 0), (3, 3), (4, 5), (3, 0), (4, 0), (2, 3), (0, 5), (5, 0), (2, 5), (5, 2), (0, 2), (3, 5)]
cliques:  0 mip: 270
C:  47.00000000000001
x(0,0) = 17.10	 x(0,1) = 21.69	 x(0,2) = 16.10	 x(0,3) = 27.69	 x(0,4) = 38.00	 x(0,5) = 34.69	 
x(1,0) = 33.00	 x(1,1) = 0.00	 x(1,2) = 8.00	 x(1,3) = 43.00	 x(1,4) = 13.00	 x(1,5) = 23.00	 
x(2,0) = 25.27	 x(2,1) = 34.27	 x(2,2) = 1.27	 x(2,3) = 6.27	 x(2,4) = 39.27	 x(2,5) = 10.27	 
x(3,0) = 9.65	 x(3,1) = 4.65	 x(3,2) = 16.97	 x(3,3) = 23.24	 x(3,4) = 30.00	 x(3,5) = 38.00	 
x(4,0) = 37.21	 x(4,1) = 18.69	 x(4,2) = 9.69	 x(4,3) = 40.21	 x(4,4) = 25.75	 x(4,5) = 33.21	 
x(5,0) = 29.06	 x(5,1) = 14.06	 x(5,2) = 43.06	 x(5,3) = 17.06	 x(5,4) = 39.06	 x(5,5) = 20.06	 
y(0,1,0) = 1.00	 y(1,0,0) = 0.00	 
y(0,2,0) = 0.51	 y(2,0,0) = 0.49	 
y(0,3,0) = 0.10	 y(3,0,0) = 0.90	 
y(0,4,0) = 0.40	 y(4,0,0) = 0.60	 
y(0,5,0) = 0.41	 